*SENSE:Minimize
NAME          MODEL
ROWS
 N  OBJ
COLUMNS
    MARK      'MARKER'                 'INTORG'
    X0000001  OBJ        4.010000000000e+02
    MARK      'MARKER'                 'INTEND'
    MARK      'MARKER'                 'INTORG'
    X0000001  OBJ       -4.010000000000e+02
    MARK      'MARKER'                 'INTEND'
    MARK      'MARKER'                 'INTORG'
    X0000003  OBJ        6.320000000000e+02
    MARK      'MARKER'                 'INTEND'
    MARK      'MARKER'                 'INTORG'
    X0000003  OBJ       -6.320000000000e+02
    MARK      'MARKER'                 'INTEND'
    MARK      'MARKER'                 'INTORG'
    X0000005  OBJ        7.100000000000e+02
    MARK      'MARKER'                 'INTEND'
    MARK      'MARKER'                 'INTORG'
    X0000005  OBJ       -7.100000000000e+02
    MARK      'MARKER'                 'INTEND'
    MARK      'MARKER'                 'INTORG'
    X0000007  OBJ        7.170000000000e+02
    MARK      'MARKER'                 'INTEND'
    MARK      'MARKER'                 'INTORG'
    X0000007  OBJ       -7.170000000000e+02
    MARK      'MARKER'                 'INTEND'
    MARK      'MARKER'                 'INTORG'
    X0000009  OBJ        9.600000000000e+01
    MARK      'MARKER'                 'INTEND'
    MARK      'MARKER'                 'INTORG'
    X0000009  OBJ       -9.600000000000e+01
    MARK      'MARKER'                 'INTEND'
RHS
BOUNDS
 BV BND       X0000001
 BV BND       X0000001
 BV BND       X0000003
 BV BND       X0000003
 BV BND       X0000005
 BV BND       X0000005
 BV BND       X0000007
 BV BND       X0000007
 BV BND       X0000009
 BV BND       X0000009
ENDATA
